33D32945 STP File, STP Format Version 1.0

SECTION Comments
Name "edge_n10_d2_s4"
Problem "Euclidean Steiner Tree Problem"
Remark "Generated with STPGenerator. 2 dimensions."
END

SECTION Graph
Nodes 10
END

SECTION Coordinates
DD 0 0.9164578756 0.9164578756
DD 1 0.1339819669 0.1339819669
DD 2 0.1912108968 0.1912108968
DD 3 0.2600808285 0.2600808285
DD 4 0.2142811954 0.2142811954
DD 5 0.3601613163 0.3601613163
DD 6 0.4198029756 0.4198029756
DD 7 0.6540782580 0.6540782580
DD 8 0.1943656375 0.1943656375
DD 9 0.3097259371 0.3097259371
END
